* ENCODING=ISO-8859-1
NAME          CPLEX
ROWS
 N  obj1    
 G  c1      
 G  c2      
 G  c3      
 G  c4      
 G  c5      
 G  c6      
 G  c7      
 G  c8      
 G  c9      
 G  c10     
 G  c11     
 G  c12     
 G  c13     
 G  c14     
 G  c15     
 G  c16     
 G  c17     
 G  c18     
 G  c19     
 G  c20     
 G  c21     
 G  c22     
 G  c23     
 G  c24     
 G  c25     
 G  c26     
 G  c27     
 G  c28     
 G  c29     
 G  c30     
 G  c31     
 G  c32     
 G  c33     
 G  c34     
 G  c35     
 G  c36     
 G  c37     
 G  c38     
 G  c39     
 G  c40     
 G  c41     
 G  c42     
 G  c43     
 G  c44     
 G  c45     
 G  c46     
 G  c47     
 G  c48     
 G  c49     
 G  c50     
 G  c51     
 G  c52     
 G  c53     
 G  c54     
 G  c55     
 G  c56     
 G  c57     
 G  c58     
 G  c59     
 G  c60     
COLUMNS
    MARK0000  'MARKER'                 'INTORG'
    x1        obj1                            1
    x1        c2                            138
    x1        c3                            259
    x1        c16                           581
    x1        c33                           393
    x1        c35                           963
    x1        c47                           513
    x1        c53                           781
    x1        c56                           404
    x2        obj1                            1
    x2        c18                           132
    x2        c36                           707
    x2        c42                           641
    x2        c48                           687
    x3        obj1                            1
    x3        c18                           345
    x3        c32                           547
    x3        c47                           924
    x4        obj1                            1
    x4        c5                            721
    x4        c25                           706
    x4        c32                           700
    x4        c37                           898
    x4        c40                           159
    x4        c41                           972
    x4        c51                           770
    x4        c58                           364
    x5        obj1                            1
    x5        c12                           181
    x5        c22                           907
    x5        c29                           660
    x6        obj1                            1
    x6        c2                            320
    x6        c5                            965
    x6        c21                           411
    x6        c25                           255
    x6        c35                           143
    x6        c40                           153
    x6        c41                           133
    x6        c52                           223
    x6        c53                           675
    x6        c58                           555
    x6        c60                           598
    x7        obj1                            1
    x7        c16                           699
    x7        c17                           598
    x7        c22                           184
    x7        c25                           474
    x7        c36                           890
    x7        c44                           196
    x7        c47                           656
    x7        c49                           479
    x8        obj1                            1
    x8        c12                           263
    x8        c24                           158
    x8        c31                           831
    x8        c44                           905
    x8        c49                           663
    x8        c57                           271
    x8        c59                           571
    x9        obj1                            1
    x9        c2                            483
    x9        c18                           862
    x9        c31                           644
    x9        c57                           729
    x10       obj1                            1
    x10       c12                           375
    x10       c14                           940
    x10       c27                           373
    x10       c35                           517
    x10       c37                           489
    x10       c39                           945
    x10       c40                           998
    x10       c46                           485
    x10       c47                           687
    x11       obj1                            1
    x11       c20                           166
    x11       c28                           552
    x11       c29                           421
    x11       c35                           305
    x11       c41                           239
    x11       c44                           712
    x11       c56                           109
    x12       obj1                            1
    x12       c6                            878
    x12       c8                            877
    x12       c11                           406
    x12       c16                           169
    x12       c24                           833
    x12       c31                           809
    x12       c49                           327
    x12       c60                           782
    x13       obj1                            1
    x13       c9                            922
    x13       c19                           963
    x13       c46                           189
    x13       c56                           496
    x14       obj1                            1
    x14       c3                            578
    x14       c16                           901
    x14       c27                           991
    x14       c33                           464
    x14       c41                           904
    x14       c60                           155
    x15       obj1                            1
    x15       c4                            722
    x15       c14                           750
    x15       c15                           996
    x15       c32                           357
    x15       c57                           894
    x15       c60                           794
    x16       obj1                            1
    x16       c17                           865
    x16       c21                           719
    x16       c33                           744
    x16       c49                           764
    x16       c56                           863
    x17       obj1                            1
    x17       c12                           113
    x17       c13                           919
    x17       c27                           956
    x17       c31                           469
    x17       c34                           898
    x17       c40                           465
    x17       c54                           500
    x18       obj1                            1
    x18       c2                            345
    x18       c7                            723
    x18       c12                           674
    x18       c16                           666
    x18       c22                           935
    x18       c26                           283
    x18       c38                           972
    x18       c55                           633
    x18       c58                           324
    x19       obj1                            1
    x19       c6                            794
    x19       c21                           634
    x19       c28                           408
    x19       c31                           767
    x19       c39                           518
    x19       c41                           648
    x20       obj1                            1
    x20       c12                           706
    x20       c25                           548
    x20       c28                           997
    x20       c45                           723
    x21       obj1                            1
    x21       c17                           627
    x21       c19                           247
    x21       c29                           912
    x21       c38                           824
    x21       c58                           724
    x21       c59                           949
    x22       obj1                            1
    x22       c14                           244
    x22       c22                           511
    x22       c26                           368
    x22       c27                           754
    x22       c34                           217
    x22       c53                           647
    x23       obj1                            1
    x23       c8                            358
    x23       c25                           483
    x23       c39                           379
    x23       c41                           891
    x23       c43                           253
    x23       c46                           925
    x23       c47                           745
    x23       c53                           263
    x24       obj1                            1
    x24       c10                           824
    x24       c26                           105
    x24       c27                           620
    x24       c44                           761
    x24       c48                           358
    x24       c49                           840
    x25       obj1                            1
    x25       c4                            108
    x25       c6                            437
    x25       c23                           721
    x25       c24                           476
    x25       c31                           753
    x25       c32                           169
    x25       c36                           948
    x25       c41                           459
    x25       c45                           114
    x25       c46                           450
    x25       c48                           318
    x25       c56                           240
    x26       obj1                            1
    x26       c13                           887
    x26       c15                           250
    x26       c19                           203
    x26       c24                           141
    x26       c39                           569
    x26       c53                           555
    x27       obj1                            1
    x27       c1                            720
    x27       c6                            274
    x27       c10                           163
    x27       c21                           650
    x27       c31                           591
    x27       c35                           539
    x27       c45                           567
    x28       obj1                            1
    x28       c2                            824
    x28       c14                           940
    x28       c16                           349
    x28       c19                           230
    x28       c34                           998
    x28       c35                           163
    x28       c37                           263
    x28       c39                           204
    x28       c41                           156
    x28       c45                           101
    x28       c56                           691
    x29       obj1                            1
    x29       c2                            595
    x29       c4                            566
    x29       c26                           694
    x29       c52                           579
    x29       c55                           496
    x30       obj1                            1
    x30       c13                           861
    x30       c15                           875
    x30       c22                           375
    x30       c44                           572
    x30       c45                           948
    x30       c56                           124
    x31       obj1                            1
    x31       c5                            840
    x31       c8                            170
    x31       c14                           892
    x31       c55                           917
    x31       c59                           692
    x32       obj1                            1
    x32       c1                            372
    x32       c3                            887
    x32       c8                            187
    x32       c15                           217
    x32       c16                           924
    x32       c17                           309
    x32       c25                           714
    x32       c26                           107
    x32       c31                           272
    x32       c35                           205
    x32       c40                           656
    x32       c49                           345
    x32       c60                           871
    x33       obj1                            1
    x33       c9                            452
    x33       c12                           606
    x33       c28                           951
    x34       obj1                            1
    x34       c4                            440
    x34       c22                           436
    x34       c24                           531
    x34       c35                           650
    x34       c36                           428
    x34       c41                           997
    x35       obj1                            1
    x35       c15                           464
    x35       c37                           834
    x35       c56                           838
    x36       obj1                            1
    x36       c15                           859
    x36       c17                           913
    x36       c19                           822
    x36       c32                           358
    x36       c37                           528
    x36       c42                           859
    x36       c52                           875
    x37       obj1                            1
    x37       c3                            595
    x37       c19                           547
    x37       c24                           198
    x37       c27                           414
    x37       c38                           244
    x37       c43                           844
    x38       obj1                            1
    x38       c2                            493
    x38       c57                           325
    x38       c58                           219
    x39       obj1                            1
    x39       c4                            940
    x39       c6                            536
    x39       c11                           680
    x39       c37                           335
    x40       obj1                            1
    x40       c5                            193
    x40       c21                           834
    x40       c28                           683
    x40       c39                           392
    x40       c54                           630
    x41       obj1                            1
    x41       c5                            256
    x41       c8                            473
    x41       c11                           320
    x41       c12                           181
    x41       c14                           618
    x41       c19                           489
    x41       c21                           967
    x41       c31                           515
    x41       c37                           680
    x41       c38                           787
    x41       c50                           855
    x42       obj1                            1
    x42       c28                           100
    x42       c47                           784
    x42       c52                           241
    x43       obj1                            1
    x43       c17                           906
    x43       c22                           313
    x43       c36                           432
    x44       obj1                            1
    x44       c6                            769
    x44       c11                           452
    x44       c21                           768
    x44       c34                           566
    x44       c36                           939
    x45       obj1                            1
    x45       c4                            466
    x45       c5                            764
    x45       c10                           767
    x45       c23                           203
    x45       c25                           599
    x45       c60                           772
    x46       obj1                            1
    x46       c25                           770
    x46       c55                           512
    x46       c57                           831
    x47       obj1                            1
    x47       c1                            316
    x47       c50                           667
    x47       c58                           976
    x47       c59                           274
    x48       obj1                            1
    x48       c3                            517
    x48       c5                            815
    x48       c14                           627
    x48       c15                           462
    x48       c19                           413
    x48       c38                           309
    x48       c55                           372
    x49       obj1                            1
    x49       c23                           807
    x49       c26                           442
    x49       c27                           265
    x49       c28                           951
    x49       c36                           333
    x49       c51                           637
    x50       obj1                            1
    x50       c1                            867
    x50       c18                           399
    x50       c20                           433
    x50       c37                           452
    x50       c43                           966
    x50       c54                           352
    x50       c60                           989
    x51       obj1                            1
    x51       c26                           583
    x51       c34                           116
    x51       c45                           283
    x51       c49                           397
    x51       c52                           408
    x52       obj1                            1
    x52       c11                           171
    x52       c38                           322
    x53       obj1                            1
    x53       c7                            874
    x53       c19                           820
    x53       c21                           819
    x53       c24                           576
    x53       c26                           201
    x53       c30                           213
    x53       c45                           662
    x53       c49                           140
    x53       c56                           972
    x54       obj1                            1
    x54       c4                            775
    x54       c14                           704
    x54       c22                           612
    x54       c42                           387
    x54       c53                           489
    x55       obj1                            1
    x55       c8                            210
    x55       c14                           883
    x55       c22                           355
    x55       c24                           804
    x55       c39                           490
    x55       c40                           707
    x56       obj1                            1
    x56       c1                            686
    x56       c47                           280
    x56       c50                           153
    x56       c60                           158
    x57       obj1                            1
    x57       c5                            392
    x57       c7                            104
    x57       c8                            272
    x57       c9                            200
    x57       c33                           800
    x57       c51                           195
    x58       obj1                            1
    x58       c3                            200
    x58       c10                           219
    x58       c15                           270
    x58       c20                           578
    x58       c24                           429
    x58       c26                           125
    x58       c34                           721
    x58       c37                           307
    x58       c45                           102
    x58       c47                           574
    x59       obj1                            1
    x59       c8                            470
    x59       c30                           639
    x59       c43                           403
    x59       c47                           477
    x60       obj1                            1
    x60       c1                            668
    x60       c4                            710
    x60       c17                           829
    x60       c28                           503
    x60       c30                           934
    x60       c35                           972
    x60       c49                           359
    x60       c53                           510
    MARK0001  'MARKER'                 'INTEND'
RHS
    rhs       c1                           1815
    rhs       c2                           1599
    rhs       c3                           1518
    rhs       c4                           2364
    rhs       c5                           2473
    rhs       c6                           1844
    rhs       c7                            851
    rhs       c8                           1509
    rhs       c9                            787
    rhs       c10                           987
    rhs       c11                          1015
    rhs       c12                          1550
    rhs       c13                          1334
    rhs       c14                          3299
    rhs       c15                          2197
    rhs       c16                          2145
    rhs       c17                          2524
    rhs       c18                           869
    rhs       c19                          2367
    rhs       c20                           589
    rhs       c21                          2901
    rhs       c22                          2314
    rhs       c23                           866
    rhs       c24                          2073
    rhs       c25                          2275
    rhs       c26                          1454
    rhs       c27                          2187
    rhs       c28                          2573
    rhs       c29                           997
    rhs       c30                           893
    rhs       c31                          2826
    rhs       c32                          1066
    rhs       c33                          1201
    rhs       c34                          1758
    rhs       c35                          2229
    rhs       c36                          2339
    rhs       c37                          2393
    rhs       c38                          1729
    rhs       c39                          1749
    rhs       c40                          1569
    rhs       c41                          2700
    rhs       c42                           944
    rhs       c43                          1233
    rhs       c44                          1573
    rhs       c45                          1750
    rhs       c46                          1025
    rhs       c47                          2820
    rhs       c48                           682
    rhs       c49                          2157
    rhs       c50                           838
    rhs       c51                           801
    rhs       c52                          1163
    rhs       c53                          1960
    rhs       c54                           741
    rhs       c55                          1465
    rhs       c56                          2369
    rhs       c57                          1525
    rhs       c58                          1581
    rhs       c59                          1243
    rhs       c60                          2560
BOUNDS
 LI bnd       x1        0
 LI bnd       x2        0
 LI bnd       x3        0
 LI bnd       x4        0
 LI bnd       x5        0
 LI bnd       x6        0
 LI bnd       x7        0
 LI bnd       x8        0
 LI bnd       x9        0
 LI bnd       x10       0
 LI bnd       x11       0
 LI bnd       x12       0
 LI bnd       x13       0
 LI bnd       x14       0
 LI bnd       x15       0
 LI bnd       x16       0
 LI bnd       x17       0
 LI bnd       x18       0
 LI bnd       x19       0
 LI bnd       x20       0
 LI bnd       x21       0
 LI bnd       x22       0
 LI bnd       x23       0
 LI bnd       x24       0
 LI bnd       x25       0
 LI bnd       x26       0
 LI bnd       x27       0
 LI bnd       x28       0
 LI bnd       x29       0
 LI bnd       x30       0
 LI bnd       x31       0
 LI bnd       x32       0
 LI bnd       x33       0
 LI bnd       x34       0
 LI bnd       x35       0
 LI bnd       x36       0
 LI bnd       x37       0
 LI bnd       x38       0
 LI bnd       x39       0
 LI bnd       x40       0
 LI bnd       x41       0
 LI bnd       x42       0
 LI bnd       x43       0
 LI bnd       x44       0
 LI bnd       x45       0
 LI bnd       x46       0
 LI bnd       x47       0
 LI bnd       x48       0
 LI bnd       x49       0
 LI bnd       x50       0
 LI bnd       x51       0
 LI bnd       x52       0
 LI bnd       x53       0
 LI bnd       x54       0
 LI bnd       x55       0
 LI bnd       x56       0
 LI bnd       x57       0
 LI bnd       x58       0
 LI bnd       x59       0
 LI bnd       x60       0
ENDATA
